c nIsolatedPIs 0
c maxPI 128
p cnf 693 1696
c gate 129 23 -25 0
23 -129 0
-25 -129 0
-23 25 129 0
c gate 130 -23 25 0
-23 -130 0
25 -130 0
23 -25 130 0
c gate 131 -129 -130 0
-129 -131 0
-130 -131 0
129 130 131 0
c gate 132 -21 131 0
-21 -132 0
131 -132 0
21 -131 132 0
c gate 133 21 -131 0
21 -133 0
-131 -133 0
-21 131 133 0
c gate 134 -26 -27 0
-26 -134 0
-27 -134 0
26 27 134 0
c gate 135 26 27 0
26 -135 0
27 -135 0
-26 -27 135 0
c gate 136 -134 -135 0
-134 -136 0
-135 -136 0
134 135 136 0
c gate 137 -133 -136 0
-133 -137 0
-136 -137 0
133 136 137 0
c gate 138 -132 137 0
-132 -138 0
137 -138 0
132 -137 138 0
c gate 139 -23 -27 0
-23 -139 0
-27 -139 0
23 27 139 0
c gate 140 23 27 0
23 -140 0
27 -140 0
-23 -27 140 0
c gate 141 -139 -140 0
-139 -141 0
-140 -141 0
139 140 141 0
c gate 142 -22 -141 0
-22 -142 0
-141 -142 0
22 141 142 0
c gate 143 22 130 0
22 -143 0
130 -143 0
-22 -130 143 0
c gate 144 -21 -26 0
-21 -144 0
-26 -144 0
21 26 144 0
c gate 145 -129 144 0
-129 -145 0
144 -145 0
129 -144 145 0
c gate 146 -143 145 0
-143 -146 0
145 -146 0
143 -145 146 0
c gate 147 -142 146 0
-142 -147 0
146 -147 0
142 -146 147 0
c gate 148 -26 133 0
-26 -148 0
133 -148 0
26 -133 148 0
c gate 149 -23 -25 0
-23 -149 0
-25 -149 0
23 25 149 0
c gate 150 -21 26 0
-21 -150 0
26 -150 0
21 -26 150 0
c gate 151 149 150 0
149 -151 0
150 -151 0
-149 -150 151 0
c gate 152 -148 -151 0
-148 -152 0
-151 -152 0
148 151 152 0
c gate 153 -147 152 0
-147 -153 0
152 -153 0
147 -152 153 0
c gate 154 -138 153 0
-138 -154 0
153 -154 0
138 -153 154 0
c gate 155 -25 -154 0
-25 -155 0
-154 -155 0
25 154 155 0
c gate 156 -27 -155 0
-27 -156 0
-155 -156 0
27 155 156 0
c gate 157 -19 -20 0
-19 -157 0
-20 -157 0
19 20 157 0
c gate 158 -17 -18 0
-17 -158 0
-18 -158 0
17 18 158 0
c gate 159 -15 -16 0
-15 -159 0
-16 -159 0
15 16 159 0
c gate 160 -12 -14 0
-12 -160 0
-14 -160 0
12 14 160 0
c gate 161 -10 -11 0
-10 -161 0
-11 -161 0
10 11 161 0
c gate 162 -8 -9 0
-8 -162 0
-9 -162 0
8 9 162 0
c gate 163 -6 -7 0
-6 -163 0
-7 -163 0
6 7 163 0
c gate 164 -4 -5 0
-4 -164 0
-5 -164 0
4 5 164 0
c gate 165 -3 -128 0
-3 -165 0
-128 -165 0
3 128 165 0
c gate 166 164 -165 0
164 -166 0
-165 -166 0
-164 165 166 0
c gate 167 163 -166 0
163 -167 0
-166 -167 0
-163 166 167 0
c gate 168 162 -167 0
162 -168 0
-167 -168 0
-162 167 168 0
c gate 169 161 -168 0
161 -169 0
-168 -169 0
-161 168 169 0
c gate 170 160 -169 0
160 -170 0
-169 -170 0
-160 169 170 0
c gate 171 159 -170 0
159 -171 0
-170 -171 0
-159 170 171 0
c gate 172 158 -171 0
158 -172 0
-171 -172 0
-158 171 172 0
c gate 173 157 -172 0
157 -173 0
-172 -173 0
-157 172 173 0
c gate 174 157 158 0
157 -174 0
158 -174 0
-157 -158 174 0
c gate 175 159 160 0
159 -175 0
160 -175 0
-159 -160 175 0
c gate 176 161 162 0
161 -176 0
162 -176 0
-161 -162 176 0
c gate 177 175 176 0
175 -177 0
176 -177 0
-175 -176 177 0
c gate 178 -126 -127 0
-126 -178 0
-127 -178 0
126 127 178 0
c gate 179 163 178 0
163 -179 0
178 -179 0
-163 -178 179 0
c gate 180 164 165 0
164 -180 0
165 -180 0
-164 -165 180 0
c gate 181 179 180 0
179 -181 0
180 -181 0
-179 -180 181 0
c gate 182 177 181 0
177 -182 0
181 -182 0
-177 -181 182 0
c gate 183 174 182 0
174 -183 0
182 -183 0
-174 -182 183 0
c gate 184 -124 -125 0
-124 -184 0
-125 -184 0
124 125 184 0
c gate 185 -122 -123 0
-122 -185 0
-123 -185 0
122 123 185 0
c gate 186 -120 -121 0
-120 -186 0
-121 -186 0
120 121 186 0
c gate 187 -117 -119 0
-117 -187 0
-119 -187 0
117 119 187 0
c gate 188 -115 -116 0
-115 -188 0
-116 -188 0
115 116 188 0
c gate 189 -113 -114 0
-113 -189 0
-114 -189 0
113 114 189 0
c gate 190 -111 -112 0
-111 -190 0
-112 -190 0
111 112 190 0
c gate 191 -109 -110 0
-109 -191 0
-110 -191 0
109 110 191 0
c gate 192 -106 -108 0
-106 -192 0
-108 -192 0
106 108 192 0
c gate 193 -102 -103 0
-102 -193 0
-103 -193 0
102 103 193 0
c gate 194 184 185 0
184 -194 0
185 -194 0
-184 -185 194 0
c gate 195 186 187 0
186 -195 0
187 -195 0
-186 -187 195 0
c gate 196 194 195 0
194 -196 0
195 -196 0
-194 -195 196 0
c gate 197 182 -196 0
182 -197 0
-196 -197 0
-182 196 197 0
c gate 198 188 189 0
188 -198 0
189 -198 0
-188 -189 198 0
c gate 199 -197 198 0
-197 -199 0
198 -199 0
197 -198 199 0
c gate 200 -104 -105 0
-104 -200 0
-105 -200 0
104 105 200 0
c gate 201 192 200 0
192 -201 0
200 -201 0
-192 -200 201 0
c gate 202 -28 -29 0
-28 -202 0
-29 -202 0
28 29 202 0
c gate 203 -30 202 0
-30 -203 0
202 -203 0
30 -202 203 0
c gate 204 134 203 0
134 -204 0
203 -204 0
-134 -203 204 0
c gate 205 -30 -31 0
-30 -205 0
-31 -205 0
30 31 205 0
c gate 206 -32 -33 0
-32 -206 0
-33 -206 0
32 33 206 0
c gate 207 205 206 0
205 -207 0
206 -207 0
-205 -206 207 0
c gate 208 204 207 0
204 -208 0
207 -208 0
-204 -207 208 0
c gate 209 154 174 0
154 -209 0
174 -209 0
-154 -174 209 0
c gate 210 208 209 0
208 -210 0
209 -210 0
-208 -209 210 0
c gate 211 190 191 0
190 -211 0
191 -211 0
-190 -191 211 0
c gate 212 210 211 0
210 -212 0
211 -212 0
-210 -211 212 0
c gate 213 -201 212 0
-201 -213 0
212 -213 0
201 -212 213 0
c gate 214 199 -213 0
199 -214 0
-213 -214 0
-199 213 214 0
c gate 215 -193 214 0
-193 -215 0
214 -215 0
193 -214 215 0
c gate 216 192 -215 0
192 -216 0
-215 -216 0
-192 215 216 0
c gate 217 -100 -101 0
-100 -217 0
-101 -217 0
100 101 217 0
c gate 218 193 217 0
193 -218 0
217 -218 0
-193 -217 218 0
c gate 219 212 -218 0
212 -219 0
-218 -219 0
-212 218 219 0
c gate 220 214 -219 0
214 -220 0
-219 -220 0
-214 219 220 0
c gate 221 -98 -99 0
-98 -221 0
-99 -221 0
98 99 221 0
c gate 222 -95 -97 0
-95 -222 0
-97 -222 0
95 97 222 0
c gate 223 -93 -94 0
-93 -223 0
-94 -223 0
93 94 223 0
c gate 224 -91 -92 0
-91 -224 0
-92 -224 0
91 92 224 0
c gate 225 210 224 0
210 -225 0
224 -225 0
-210 -224 225 0
c gate 226 -84 -86 0
-84 -226 0
-86 -226 0
84 86 226 0
c gate 227 -82 -83 0
-82 -227 0
-83 -227 0
82 83 227 0
c gate 228 226 227 0
226 -228 0
227 -228 0
-226 -227 228 0
c gate 229 -89 -90 0
-89 -229 0
-90 -229 0
89 90 229 0
c gate 230 -87 -88 0
-87 -230 0
-88 -230 0
87 88 230 0
c gate 231 229 230 0
229 -231 0
230 -231 0
-229 -230 231 0
c gate 232 223 225 0
223 -232 0
225 -232 0
-223 -225 232 0
c gate 233 231 232 0
231 -233 0
232 -233 0
-231 -232 233 0
c gate 234 228 233 0
228 -234 0
233 -234 0
-228 -233 234 0
c gate 235 -80 -81 0
-80 -235 0
-81 -235 0
80 81 235 0
c gate 236 -78 -79 0
-78 -236 0
-79 -236 0
78 79 236 0
c gate 237 -76 -77 0
-76 -237 0
-77 -237 0
76 77 237 0
c gate 238 -73 -75 0
-73 -238 0
-75 -238 0
73 75 238 0
c gate 239 -65 -66 0
-65 -239 0
-66 -239 0
65 66 239 0
c gate 240 -62 -64 0
-62 -240 0
-64 -240 0
62 64 240 0
c gate 241 -60 -61 0
-60 -241 0
-61 -241 0
60 61 241 0
c gate 242 -58 -59 0
-58 -242 0
-59 -242 0
58 59 242 0
c gate 243 241 -242 0
241 -243 0
-242 -243 0
-241 242 243 0
c gate 244 240 -243 0
240 -244 0
-243 -244 0
-240 243 244 0
c gate 245 -67 -68 0
-67 -245 0
-68 -245 0
67 68 245 0
c gate 246 240 241 0
240 -246 0
241 -246 0
-240 -241 246 0
c gate 247 239 246 0
239 -247 0
246 -247 0
-239 -246 247 0
c gate 248 -56 -57 0
-56 -248 0
-57 -248 0
56 57 248 0
c gate 249 242 248 0
242 -249 0
248 -249 0
-242 -248 249 0
c gate 250 247 249 0
247 -250 0
249 -250 0
-247 -249 250 0
c gate 251 245 250 0
245 -251 0
250 -251 0
-245 -250 251 0
c gate 252 -54 -55 0
-54 -252 0
-55 -252 0
54 55 252 0
c gate 253 -51 -53 0
-51 -253 0
-53 -253 0
51 53 253 0
c gate 254 -49 -50 0
-49 -254 0
-50 -254 0
49 50 254 0
c gate 255 -47 -48 0
-47 -255 0
-48 -255 0
47 48 255 0
c gate 256 -45 -46 0
-45 -256 0
-46 -256 0
45 46 256 0
c gate 257 -43 -44 0
-43 -257 0
-44 -257 0
43 44 257 0
c gate 258 -40 -42 0
-40 -258 0
-42 -258 0
40 42 258 0
c gate 259 -38 -39 0
-38 -259 0
-39 -259 0
38 39 259 0
c gate 260 -36 -37 0
-36 -260 0
-37 -260 0
36 37 260 0
c gate 261 259 -260 0
259 -261 0
-260 -261 0
-259 260 261 0
c gate 262 258 -261 0
258 -262 0
-261 -262 0
-258 261 262 0
c gate 263 257 -262 0
257 -263 0
-262 -263 0
-257 262 263 0
c gate 264 256 -263 0
256 -264 0
-263 -264 0
-256 263 264 0
c gate 265 255 -264 0
255 -265 0
-264 -265 0
-255 264 265 0
c gate 266 254 -265 0
254 -266 0
-265 -266 0
-254 265 266 0
c gate 267 253 -266 0
253 -267 0
-266 -267 0
-253 266 267 0
c gate 268 252 -267 0
252 -268 0
-267 -268 0
-252 267 268 0
c gate 269 251 -268 0
251 -269 0
-268 -269 0
-251 268 269 0
c gate 270 244 -269 0
244 -270 0
-269 -270 0
-244 269 270 0
c gate 271 239 -270 0
239 -271 0
-270 -271 0
-239 270 271 0
c gate 272 -71 -72 0
-71 -272 0
-72 -272 0
71 72 272 0
c gate 273 245 272 0
245 -273 0
272 -273 0
-245 -272 273 0
c gate 274 -271 273 0
-271 -274 0
273 -274 0
271 -273 274 0
c gate 275 238 -274 0
238 -275 0
-274 -275 0
-238 274 275 0
c gate 276 237 -275 0
237 -276 0
-275 -276 0
-237 275 276 0
c gate 277 236 -276 0
236 -277 0
-276 -277 0
-236 276 277 0
c gate 278 235 -277 0
235 -278 0
-277 -278 0
-235 277 278 0
c gate 279 234 -278 0
234 -279 0
-278 -279 0
-234 278 279 0
c gate 280 -226 233 0
-226 -280 0
233 -280 0
226 -233 280 0
c gate 281 229 -280 0
229 -281 0
-280 -281 0
-229 280 281 0
c gate 282 -279 281 0
-279 -282 0
281 -282 0
279 -281 282 0
c gate 283 225 -282 0
225 -283 0
-282 -283 0
-225 282 283 0
c gate 284 223 -283 0
223 -284 0
-283 -284 0
-223 283 284 0
c gate 285 222 -284 0
222 -285 0
-284 -285 0
-222 284 285 0
c gate 286 221 -285 0
221 -286 0
-285 -286 0
-221 285 286 0
c gate 287 220 -286 0
220 -287 0
-286 -287 0
-220 286 287 0
c gate 288 216 -287 0
216 -288 0
-287 -288 0
-216 287 288 0
c gate 289 191 -288 0
191 -289 0
-288 -289 0
-191 288 289 0
c gate 290 190 -289 0
190 -290 0
-289 -290 0
-190 289 290 0
c gate 291 189 -290 0
189 -291 0
-290 -291 0
-189 290 291 0
c gate 292 188 -291 0
188 -292 0
-291 -292 0
-188 291 292 0
c gate 293 187 -292 0
187 -293 0
-292 -293 0
-187 292 293 0
c gate 294 186 -293 0
186 -294 0
-293 -294 0
-186 293 294 0
c gate 295 185 -294 0
185 -295 0
-294 -295 0
-185 294 295 0
c gate 296 184 -295 0
184 -296 0
-295 -296 0
-184 295 296 0
c gate 297 183 -296 0
183 -297 0
-296 -297 0
-183 296 297 0
c gate 298 173 -297 0
173 -298 0
-297 -298 0
-173 297 298 0
c gate 299 -25 -298 0
-25 -299 0
-298 -299 0
25 298 299 0
c gate 300 154 -299 0
154 -300 0
-299 -300 0
-154 299 300 0
c gate 301 156 -300 0
156 -301 0
-300 -301 0
-156 300 301 0
c gate 302 -25 27 0
-25 -302 0
27 -302 0
25 -27 302 0
c gate 303 154 302 0
154 -303 0
302 -303 0
-154 -302 303 0
c gate 304 298 303 0
298 -304 0
303 -304 0
-298 -303 304 0
c gate 305 -23 -304 0
-23 -305 0
-304 -305 0
23 304 305 0
c gate 306 -301 305 0
-301 -306 0
305 -306 0
301 -305 306 0
c gate 307 239 245 0
239 -307 0
245 -307 0
-239 -245 307 0
c gate 308 -69 -70 0
-69 -308 0
-70 -308 0
69 70 308 0
c gate 309 272 308 0
272 -309 0
308 -309 0
-272 -308 309 0
c gate 310 307 309 0
307 -310 0
309 -310 0
-307 -309 310 0
c gate 311 251 309 0
251 -311 0
309 -311 0
-251 -309 311 0
c gate 312 -13 -24 0
-13 -312 0
-24 -312 0
13 24 312 0
c gate 313 252 253 0
252 -313 0
253 -313 0
-252 -253 313 0
c gate 314 254 255 0
254 -314 0
255 -314 0
-254 -255 314 0
c gate 315 313 314 0
313 -315 0
314 -315 0
-313 -314 315 0
c gate 316 -246 307 0
-246 -316 0
307 -316 0
246 -307 316 0
c gate 317 43 44 0
43 -317 0
44 -317 0
-43 -44 317 0
c gate 318 45 46 0
45 -318 0
46 -318 0
-45 -46 318 0
c gate 319 317 318 0
317 -319 0
318 -319 0
-317 -318 319 0
c gate 320 316 -319 0
316 -320 0
-319 -320 0
-316 319 320 0
c gate 321 258 259 0
258 -321 0
259 -321 0
-258 -259 321 0
c gate 322 256 257 0
256 -322 0
257 -322 0
-256 -257 322 0
c gate 323 -316 -322 0
-316 -323 0
-322 -323 0
316 322 323 0
c gate 324 321 -323 0
321 -324 0
-323 -324 0
-321 323 324 0
c gate 325 -320 324 0
-320 -325 0
324 -325 0
320 -324 325 0
c gate 326 315 325 0
315 -326 0
325 -326 0
-315 -325 326 0
c gate 327 311 -326 0
311 -327 0
-326 -327 0
-311 326 327 0
c gate 328 -34 -35 0
-34 -328 0
-35 -328 0
34 35 328 0
c gate 329 260 328 0
260 -329 0
328 -329 0
-260 -328 329 0
c gate 330 -2 -118 0
-2 -330 0
-118 -330 0
2 118 330 0
c gate 331 312 330 0
312 -331 0
330 -331 0
-312 -330 331 0
c gate 332 329 331 0
329 -332 0
331 -332 0
-329 -331 332 0
c gate 333 311 315 0
311 -333 0
315 -333 0
-311 -315 333 0
c gate 334 332 333 0
332 -334 0
333 -334 0
-332 -333 334 0
c gate 335 -327 334 0
-327 -335 0
334 -335 0
327 -334 335 0
c gate 336 -96 -107 0
-96 -336 0
-107 -336 0
96 107 336 0
c gate 337 -74 -85 0
-74 -337 0
-85 -337 0
74 85 337 0
c gate 338 -52 -63 0
-52 -338 0
-63 -338 0
52 63 338 0
c gate 339 337 -338 0
337 -339 0
-338 -339 0
-337 338 339 0
c gate 340 336 -339 0
336 -340 0
-339 -340 0
-336 339 340 0
c gate 341 -2 -340 0
-2 -341 0
-340 -341 0
2 340 341 0
c gate 342 335 341 0
335 -342 0
341 -342 0
-335 -341 342 0
c gate 343 312 -342 0
312 -343 0
-342 -343 0
-312 342 343 0
c gate 344 259 328 0
259 -344 0
328 -344 0
-259 -328 344 0
c gate 345 -343 344 0
-343 -345 0
344 -345 0
343 -344 345 0
c gate 346 262 -345 0
262 -346 0
-345 -346 0
-262 345 346 0
c gate 347 257 -346 0
257 -347 0
-346 -347 0
-257 346 347 0
c gate 348 256 -347 0
256 -348 0
-347 -348 0
-256 347 348 0
c gate 349 255 -348 0
255 -349 0
-348 -349 0
-255 348 349 0
c gate 350 254 -349 0
254 -350 0
-349 -350 0
-254 349 350 0
c gate 351 253 -350 0
253 -351 0
-350 -351 0
-253 350 351 0
c gate 352 252 -351 0
252 -352 0
-351 -352 0
-252 351 352 0
c gate 353 311 -352 0
311 -353 0
-352 -353 0
-311 352 353 0
c gate 354 244 -353 0
244 -354 0
-353 -354 0
-244 353 354 0
c gate 355 310 -354 0
310 -355 0
-354 -355 0
-310 354 355 0
c gate 356 -245 308 0
-245 -356 0
308 -356 0
245 -308 356 0
c gate 357 272 -356 0
272 -357 0
-356 -357 0
-272 356 357 0
c gate 358 -355 357 0
-355 -358 0
357 -358 0
355 -357 358 0
c gate 359 238 -358 0
238 -359 0
-358 -359 0
-238 358 359 0
c gate 360 237 -359 0
237 -360 0
-359 -360 0
-237 359 360 0
c gate 361 236 -360 0
236 -361 0
-360 -361 0
-236 360 361 0
c gate 362 235 -361 0
235 -362 0
-361 -362 0
-235 361 362 0
c gate 363 234 -362 0
234 -363 0
-362 -363 0
-234 362 363 0
c gate 364 281 -363 0
281 -364 0
-363 -364 0
-281 363 364 0
c gate 365 225 -364 0
225 -365 0
-364 -365 0
-225 364 365 0
c gate 366 223 -365 0
223 -366 0
-365 -366 0
-223 365 366 0
c gate 367 221 222 0
221 -367 0
222 -367 0
-221 -222 367 0
c gate 368 192 367 0
192 -368 0
367 -368 0
-192 -367 368 0
c gate 369 220 368 0
220 -369 0
368 -369 0
-220 -368 369 0
c gate 370 -366 369 0
-366 -370 0
369 -370 0
366 -369 370 0
c gate 371 220 -221 0
220 -371 0
-221 -371 0
-220 221 371 0
c gate 372 216 -371 0
216 -372 0
-371 -372 0
-216 371 372 0
c gate 373 -370 372 0
-370 -373 0
372 -373 0
370 -372 373 0
c gate 374 191 -373 0
191 -374 0
-373 -374 0
-191 373 374 0
c gate 375 190 -374 0
190 -375 0
-374 -375 0
-190 374 375 0
c gate 376 189 -375 0
189 -376 0
-375 -376 0
-189 375 376 0
c gate 377 188 -376 0
188 -377 0
-376 -377 0
-188 376 377 0
c gate 378 187 -377 0
187 -378 0
-377 -378 0
-187 377 378 0
c gate 379 186 -378 0
186 -379 0
-378 -379 0
-186 378 379 0
c gate 380 185 -379 0
185 -380 0
-379 -380 0
-185 379 380 0
c gate 381 184 -380 0
184 -381 0
-380 -381 0
-184 380 381 0
c gate 382 183 -381 0
183 -382 0
-381 -382 0
-183 381 382 0
c gate 383 173 -382 0
173 -383 0
-382 -383 0
-173 382 383 0
c gate 384 -25 -383 0
-25 -384 0
-383 -384 0
25 383 384 0
c gate 385 154 -384 0
154 -385 0
-384 -385 0
-154 384 385 0
c gate 386 156 -385 0
156 -386 0
-385 -386 0
-156 385 386 0
c gate 387 303 383 0
303 -387 0
383 -387 0
-303 -383 387 0
c gate 388 -23 -387 0
-23 -388 0
-387 -388 0
23 387 388 0
c gate 389 -386 388 0
-386 -389 0
388 -389 0
386 -388 389 0
c gate 390 306 389 0
306 -390 0
389 -390 0
-306 -389 390 0
c gate 391 -306 -389 0
-306 -391 0
-389 -391 0
306 389 391 0
c gate 392 23 -134 0
23 -392 0
-134 -392 0
-23 134 392 0
c gate 393 28 33 0
28 -393 0
33 -393 0
-28 -33 393 0
c gate 394 -202 -393 0
-202 -394 0
-393 -394 0
202 393 394 0
c gate 395 -21 205 0
-21 -395 0
205 -395 0
21 -205 395 0
c gate 396 -394 395 0
-394 -396 0
395 -396 0
394 -395 396 0
c gate 397 -392 396 0
-392 -397 0
396 -397 0
392 -396 397 0
c gate 398 -391 397 0
-391 -398 0
397 -398 0
391 -397 398 0
c gate 399 -390 398 0
-390 -399 0
398 -399 0
390 -398 399 0
c gate 400 -29 205 0
-29 -400 0
205 -400 0
29 -205 400 0
c gate 401 -182 400 0
-182 -401 0
400 -401 0
182 -400 401 0
c gate 402 210 -401 0
210 -402 0
-401 -402 0
-210 401 402 0
c gate 403 190 199 0
190 -403 0
199 -403 0
-190 -199 403 0
c gate 404 105 -106 0
105 -404 0
-106 -404 0
-105 106 404 0
c gate 405 -108 -404 0
-108 -405 0
-404 -405 0
108 404 405 0
c gate 406 -109 -405 0
-109 -406 0
-405 -406 0
109 405 406 0
c gate 407 -110 -406 0
-110 -407 0
-406 -407 0
110 406 407 0
c gate 408 191 201 0
191 -408 0
201 -408 0
-191 -201 408 0
c gate 409 101 -102 0
101 -409 0
-102 -409 0
-101 102 409 0
c gate 410 -103 -409 0
-103 -410 0
-409 -410 0
103 409 410 0
c gate 411 223 367 0
223 -411 0
367 -411 0
-223 -367 411 0
c gate 412 90 -91 0
90 -412 0
-91 -412 0
-90 91 412 0
c gate 413 -92 -412 0
-92 -413 0
-412 -413 0
92 412 413 0
c gate 414 224 229 0
224 -414 0
229 -414 0
-224 -229 414 0
c gate 415 83 -84 0
83 -415 0
-84 -415 0
-83 84 415 0
c gate 416 -86 -415 0
-86 -416 0
-415 -416 0
86 415 416 0
c gate 417 -87 -416 0
-87 -417 0
-416 -417 0
87 416 417 0
c gate 418 -88 -417 0
-88 -418 0
-417 -418 0
88 417 418 0
c gate 419 228 230 0
228 -419 0
230 -419 0
-228 -230 419 0
c gate 420 79 -80 0
79 -420 0
-80 -420 0
-79 80 420 0
c gate 421 -81 -420 0
-81 -421 0
-420 -421 0
81 420 421 0
c gate 422 235 236 0
235 -422 0
236 -422 0
-235 -236 422 0
c gate 423 72 -73 0
72 -423 0
-73 -423 0
-72 73 423 0
c gate 424 -75 -423 0
-75 -424 0
-423 -424 0
75 423 424 0
c gate 425 -76 -424 0
-76 -425 0
-424 -425 0
76 424 425 0
c gate 426 -77 -425 0
-77 -426 0
-425 -426 0
77 425 426 0
c gate 427 61 -62 0
61 -427 0
-62 -427 0
-61 62 427 0
c gate 428 -64 -427 0
-64 -428 0
-427 -428 0
64 427 428 0
c gate 429 -65 -428 0
-65 -429 0
-428 -429 0
65 428 429 0
c gate 430 -66 -429 0
-66 -430 0
-429 -430 0
66 429 430 0
c gate 431 57 -58 0
57 -431 0
-58 -431 0
-57 58 431 0
c gate 432 -59 -431 0
-59 -432 0
-431 -432 0
59 431 432 0
c gate 433 254 313 0
254 -433 0
313 -433 0
-254 -313 433 0
c gate 434 46 -47 0
46 -434 0
-47 -434 0
-46 47 434 0
c gate 435 -48 -434 0
-48 -435 0
-434 -435 0
48 434 435 0
c gate 436 255 256 0
255 -436 0
256 -436 0
-255 -256 436 0
c gate 437 257 321 0
257 -437 0
321 -437 0
-257 -321 437 0
c gate 438 63 -74 0
63 -438 0
-74 -438 0
-63 74 438 0
c gate 439 -85 -438 0
-85 -439 0
-438 -439 0
85 438 439 0
c gate 440 -96 -439 0
-96 -440 0
-439 -440 0
96 439 440 0
c gate 441 -107 -440 0
-107 -441 0
-440 -441 0
107 440 441 0
c gate 442 -118 -441 0
-118 -442 0
-441 -442 0
118 441 442 0
c gate 443 -2 -442 0
-2 -443 0
-442 -443 0
2 442 443 0
c gate 444 -13 -443 0
-13 -444 0
-443 -444 0
13 443 444 0
c gate 445 -24 -444 0
-24 -445 0
-444 -445 0
24 444 445 0
c gate 446 329 -445 0
329 -446 0
-445 -446 0
-329 445 446 0
c gate 447 35 -36 0
35 -447 0
-36 -447 0
-35 36 447 0
c gate 448 -37 -447 0
-37 -448 0
-447 -448 0
37 447 448 0
c gate 449 -446 448 0
-446 -449 0
448 -449 0
446 -448 449 0
c gate 450 437 -449 0
437 -450 0
-449 -450 0
-437 449 450 0
c gate 451 39 -40 0
39 -451 0
-40 -451 0
-39 40 451 0
c gate 452 -42 -451 0
-42 -452 0
-451 -452 0
42 451 452 0
c gate 453 -43 -452 0
-43 -453 0
-452 -453 0
43 452 453 0
c gate 454 -44 -453 0
-44 -454 0
-453 -454 0
44 453 454 0
c gate 455 -450 454 0
-450 -455 0
454 -455 0
450 -454 455 0
c gate 456 336 337 0
336 -456 0
337 -456 0
-336 -337 456 0
c gate 457 41 -52 0
41 -457 0
-52 -457 0
-41 52 457 0
c gate 458 456 457 0
456 -458 0
457 -458 0
-456 -457 458 0
c gate 459 437 458 0
437 -459 0
458 -459 0
-437 -458 459 0
c gate 460 332 459 0
332 -460 0
459 -460 0
-332 -459 460 0
c gate 461 455 -460 0
455 -461 0
-460 -461 0
-455 460 461 0
c gate 462 436 -461 0
436 -462 0
-461 -462 0
-436 461 462 0
c gate 463 435 -462 0
435 -463 0
-462 -463 0
-435 462 463 0
c gate 464 433 -463 0
433 -464 0
-463 -464 0
-433 463 464 0
c gate 465 50 313 0
50 -465 0
313 -465 0
-50 -313 465 0
c gate 466 53 -54 0
53 -466 0
-54 -466 0
-53 54 466 0
c gate 467 -55 -466 0
-55 -467 0
-466 -467 0
55 466 467 0
c gate 468 -465 467 0
-465 -468 0
467 -468 0
465 -467 468 0
c gate 469 -464 468 0
-464 -469 0
468 -469 0
464 -468 469 0
c gate 470 249 -469 0
249 -470 0
-469 -470 0
-249 469 470 0
c gate 471 432 -470 0
432 -471 0
-470 -471 0
-432 470 471 0
c gate 472 247 -471 0
247 -472 0
-471 -472 0
-247 471 472 0
c gate 473 430 -472 0
430 -473 0
-472 -473 0
-430 472 473 0
c gate 474 -67 -473 0
-67 -474 0
-473 -474 0
67 473 474 0
c gate 475 -68 -474 0
-68 -475 0
-474 -475 0
68 474 475 0
c gate 476 -69 -475 0
-69 -476 0
-475 -476 0
69 475 476 0
c gate 477 -70 -476 0
-70 -477 0
-476 -477 0
70 476 477 0
c gate 478 237 238 0
237 -478 0
238 -478 0
-237 -238 478 0
c gate 479 272 478 0
272 -479 0
478 -479 0
-272 -478 479 0
c gate 480 -477 479 0
-477 -480 0
479 -480 0
477 -479 480 0
c gate 481 426 -480 0
426 -481 0
-480 -481 0
-426 480 481 0
c gate 482 422 -481 0
422 -482 0
-481 -482 0
-422 481 482 0
c gate 483 421 -482 0
421 -483 0
-482 -483 0
-421 482 483 0
c gate 484 419 -483 0
419 -484 0
-483 -484 0
-419 483 484 0
c gate 485 418 -484 0
418 -485 0
-484 -485 0
-418 484 485 0
c gate 486 414 -485 0
414 -486 0
-485 -486 0
-414 485 486 0
c gate 487 413 -486 0
413 -487 0
-486 -487 0
-413 486 487 0
c gate 488 411 -487 0
411 -488 0
-487 -488 0
-411 487 488 0
c gate 489 94 367 0
94 -489 0
367 -489 0
-94 -367 489 0
c gate 490 97 -98 0
97 -490 0
-98 -490 0
-97 98 490 0
c gate 491 -99 -490 0
-99 -491 0
-490 -491 0
99 490 491 0
c gate 492 -489 491 0
-489 -492 0
491 -492 0
489 -491 492 0
c gate 493 -488 492 0
-488 -493 0
492 -493 0
488 -492 493 0
c gate 494 218 -493 0
218 -494 0
-493 -494 0
-218 493 494 0
c gate 495 410 -494 0
410 -495 0
-494 -495 0
-410 494 495 0
c gate 496 408 -495 0
408 -496 0
-495 -496 0
-408 495 496 0
c gate 497 407 -496 0
407 -497 0
-496 -497 0
-407 496 497 0
c gate 498 403 -497 0
403 -498 0
-497 -498 0
-403 497 498 0
c gate 499 112 199 0
112 -499 0
199 -499 0
-112 -199 499 0
c gate 500 114 -115 0
114 -500 0
-115 -500 0
-114 115 500 0
c gate 501 -116 -500 0
-116 -501 0
-500 -501 0
116 500 501 0
c gate 502 -117 -501 0
-117 -502 0
-501 -502 0
117 501 502 0
c gate 503 -119 -502 0
-119 -503 0
-502 -503 0
119 502 503 0
c gate 504 -120 -503 0
-120 -504 0
-503 -504 0
120 503 504 0
c gate 505 -121 -504 0
-121 -505 0
-504 -505 0
121 504 505 0
c gate 506 194 -505 0
194 -506 0
-505 -506 0
-194 505 506 0
c gate 507 123 -124 0
123 -507 0
-124 -507 0
-123 124 507 0
c gate 508 -125 -507 0
-125 -508 0
-507 -508 0
125 507 508 0
c gate 509 -506 508 0
-506 -509 0
508 -509 0
506 -508 509 0
c gate 510 -499 509 0
-499 -510 0
509 -510 0
499 -509 510 0
c gate 511 -498 510 0
-498 -511 0
510 -511 0
498 -510 511 0
c gate 512 402 -511 0
402 -512 0
-511 -512 0
-402 511 512 0
c gate 513 127 -128 0
127 -513 0
-128 -513 0
-127 128 513 0
c gate 514 -3 -513 0
-3 -514 0
-513 -514 0
3 513 514 0
c gate 515 -4 -514 0
-4 -515 0
-514 -515 0
4 514 515 0
c gate 516 -5 -515 0
-5 -516 0
-515 -516 0
5 515 516 0
c gate 517 -6 -516 0
-6 -517 0
-516 -517 0
6 516 517 0
c gate 518 -7 -517 0
-7 -518 0
-517 -518 0
7 517 518 0
c gate 519 -8 -518 0
-8 -519 0
-518 -519 0
8 518 519 0
c gate 520 -9 -519 0
-9 -520 0
-519 -520 0
9 519 520 0
c gate 521 -10 -520 0
-10 -521 0
-520 -521 0
10 520 521 0
c gate 522 -11 -521 0
-11 -522 0
-521 -522 0
11 521 522 0
c gate 523 175 -522 0
175 -523 0
-522 -523 0
-175 522 523 0
c gate 524 14 -15 0
14 -524 0
-15 -524 0
-14 15 524 0
c gate 525 -16 -524 0
-16 -525 0
-524 -525 0
16 524 525 0
c gate 526 -523 525 0
-523 -526 0
525 -526 0
523 -525 526 0
c gate 527 174 -526 0
174 -527 0
-526 -527 0
-174 526 527 0
c gate 528 18 -19 0
18 -528 0
-19 -528 0
-18 19 528 0
c gate 529 -20 -528 0
-20 -529 0
-528 -529 0
20 528 529 0
c gate 530 -527 529 0
-527 -530 0
529 -530 0
527 -529 530 0
c gate 531 -21 -530 0
-21 -531 0
-530 -531 0
21 530 531 0
c gate 532 -22 -531 0
-22 -532 0
-531 -532 0
22 531 532 0
c gate 533 134 149 0
134 -533 0
149 -533 0
-134 -149 533 0
c gate 534 -532 533 0
-532 -534 0
533 -534 0
532 -533 534 0
c gate 535 25 -26 0
25 -535 0
-26 -535 0
-25 26 535 0
c gate 536 -27 -535 0
-27 -536 0
-535 -536 0
27 535 536 0
c gate 537 -534 536 0
-534 -537 0
536 -537 0
534 -536 537 0
c gate 538 203 -537 0
203 -538 0
-537 -538 0
-203 537 538 0
c gate 539 -31 538 0
-31 -539 0
538 -539 0
31 -538 539 0
c gate 540 -512 539 0
-512 -540 0
539 -540 0
512 -539 540 0
c gate 541 512 -539 0
512 -541 0
-539 -541 0
-512 539 541 0
c gate 542 -540 -541 0
-540 -542 0
-541 -542 0
540 541 542 0
c gate 543 436 -455 0
436 -543 0
-455 -543 0
-436 455 543 0
c gate 544 435 -543 0
435 -544 0
-543 -544 0
-435 543 544 0
c gate 545 433 -544 0
433 -545 0
-544 -545 0
-433 544 545 0
c gate 546 468 -545 0
468 -546 0
-545 -546 0
-468 545 546 0
c gate 547 249 -546 0
249 -547 0
-546 -547 0
-249 546 547 0
c gate 548 432 -547 0
432 -548 0
-547 -548 0
-432 547 548 0
c gate 549 247 -548 0
247 -549 0
-548 -549 0
-247 548 549 0
c gate 550 430 -549 0
430 -550 0
-549 -550 0
-430 549 550 0
c gate 551 -67 -550 0
-67 -551 0
-550 -551 0
67 550 551 0
c gate 552 -68 -551 0
-68 -552 0
-551 -552 0
68 551 552 0
c gate 553 -69 -552 0
-69 -553 0
-552 -553 0
69 552 553 0
c gate 554 -70 -553 0
-70 -554 0
-553 -554 0
70 553 554 0
c gate 555 479 -554 0
479 -555 0
-554 -555 0
-479 554 555 0
c gate 556 426 -555 0
426 -556 0
-555 -556 0
-426 555 556 0
c gate 557 422 -556 0
422 -557 0
-556 -557 0
-422 556 557 0
c gate 558 421 -557 0
421 -558 0
-557 -558 0
-421 557 558 0
c gate 559 419 -558 0
419 -559 0
-558 -559 0
-419 558 559 0
c gate 560 418 -559 0
418 -560 0
-559 -560 0
-418 559 560 0
c gate 561 414 -560 0
414 -561 0
-560 -561 0
-414 560 561 0
c gate 562 413 -561 0
413 -562 0
-561 -562 0
-413 561 562 0
c gate 563 411 -562 0
411 -563 0
-562 -563 0
-411 562 563 0
c gate 564 492 -563 0
492 -564 0
-563 -564 0
-492 563 564 0
c gate 565 218 -564 0
218 -565 0
-564 -565 0
-218 564 565 0
c gate 566 410 -565 0
410 -566 0
-565 -566 0
-410 565 566 0
c gate 567 408 -566 0
408 -567 0
-566 -567 0
-408 566 567 0
c gate 568 407 -567 0
407 -568 0
-567 -568 0
-407 567 568 0
c gate 569 403 -568 0
403 -569 0
-568 -569 0
-403 568 569 0
c gate 570 510 -569 0
510 -570 0
-569 -570 0
-510 569 570 0
c gate 571 402 -570 0
402 -571 0
-570 -571 0
-402 570 571 0
c gate 572 29 -30 0
29 -572 0
-30 -572 0
-29 30 572 0
c gate 573 -31 -572 0
-31 -573 0
-572 -573 0
31 572 573 0
c gate 574 -538 573 0
-538 -574 0
573 -574 0
538 -573 574 0
c gate 575 -571 574 0
-571 -575 0
574 -575 0
571 -574 575 0
c gate 576 -32 -575 0
-32 -576 0
-575 -576 0
32 575 576 0
c gate 577 -542 -576 0
-542 -577 0
-576 -577 0
542 576 577 0
c gate 578 573 -575 0
573 -578 0
-575 -578 0
-573 575 578 0
c gate 579 542 578 0
542 -579 0
578 -579 0
-542 -578 579 0
c gate 580 -577 -579 0
-577 -580 0
-579 -580 0
577 579 580 0
c gate 581 -399 580 0
-399 -581 0
580 -581 0
399 -580 581 0
c gate 582 -400 -542 0
-400 -582 0
-542 -582 0
400 542 582 0
c gate 583 32 -582 0
32 -583 0
-582 -583 0
-32 582 583 0
c gate 584 -33 -583 0
-33 -584 0
-583 -584 0
33 583 584 0
c gate 585 -581 584 0
-581 -585 0
584 -585 0
581 -584 585 0
c gate 586 422 478 0
422 -586 0
478 -586 0
-422 -478 586 0
c gate 587 182 586 0
182 -587 0
586 -587 0
-182 -586 587 0
c gate 588 234 587 0
234 -588 0
587 -588 0
-234 -587 588 0
c gate 589 315 -325 0
315 -589 0
-325 -589 0
-315 325 589 0
c gate 590 250 -589 0
250 -590 0
-589 -590 0
-250 589 590 0
c gate 591 307 -590 0
307 -591 0
-590 -591 0
-307 590 591 0
c gate 592 588 -591 0
588 -592 0
-591 -592 0
-588 591 592 0
c gate 593 232 -234 0
232 -593 0
-234 -593 0
-232 234 593 0
c gate 594 -592 -593 0
-592 -594 0
-593 -594 0
592 593 594 0
c gate 595 367 -594 0
367 -595 0
-594 -595 0
-367 594 595 0
c gate 596 220 -595 0
220 -596 0
-595 -596 0
-220 595 596 0
c gate 597 199 212 0
199 -597 0
212 -597 0
-199 -212 597 0
c gate 598 182 597 0
182 -598 0
597 -598 0
-182 -597 598 0
c gate 599 -596 598 0
-596 -599 0
598 -599 0
596 -598 599 0
c gate 600 177 -197 0
177 -600 0
-197 -600 0
-177 197 600 0
c gate 601 209 -600 0
209 -601 0
-600 -601 0
-209 600 601 0
c gate 602 208 -601 0
208 -602 0
-601 -602 0
-208 601 602 0
c gate 603 -599 602 0
-599 -603 0
602 -603 0
599 -602 603 0
c gate 604 -327 -335 0
-327 -604 0
-335 -604 0
327 335 604 0
c gate 605 588 604 0
588 -605 0
604 -605 0
-588 -604 605 0
c gate 606 -66 -605 0
-66 -606 0
-605 -606 0
66 605 606 0
c gate 607 333 -606 0
333 -607 0
-606 -607 0
-333 606 607 0
c gate 608 251 -315 0
251 -608 0
-315 -608 0
-251 315 608 0
c gate 609 310 -608 0
310 -609 0
-608 -609 0
-310 608 609 0
c gate 610 588 -609 0
588 -610 0
-609 -610 0
-588 609 610 0
c gate 611 -607 -610 0
-607 -611 0
-610 -611 0
607 610 611 0
c gate 612 212 220 0
212 -612 0
220 -612 0
-212 -220 612 0
c gate 613 367 612 0
367 -613 0
612 -613 0
-367 -612 613 0
c gate 614 223 224 0
223 -614 0
224 -614 0
-223 -224 614 0
c gate 615 613 614 0
613 -615 0
614 -615 0
-613 -614 615 0
c gate 616 234 -615 0
234 -616 0
-615 -616 0
-234 615 616 0
c gate 617 -611 -616 0
-611 -617 0
-616 -617 0
611 616 617 0
c gate 618 -232 -611 0
-232 -618 0
-611 -618 0
232 611 618 0
c gate 619 -220 -618 0
-220 -619 0
-618 -619 0
220 618 619 0
c gate 620 -234 615 0
-234 -620 0
615 -620 0
234 -615 620 0
c gate 621 -619 -620 0
-619 -621 0
-620 -621 0
619 620 621 0
c gate 622 597 -621 0
597 -622 0
-621 -622 0
-597 621 622 0
c gate 623 -617 -622 0
-617 -623 0
-622 -623 0
617 622 623 0
c gate 624 210 -623 0
210 -624 0
-623 -624 0
-210 623 624 0
c gate 625 196 -624 0
196 -625 0
-624 -625 0
-196 624 625 0
c gate 626 177 -623 0
177 -626 0
-623 -626 0
-177 623 626 0
c gate 627 -210 -626 0
-210 -627 0
-626 -627 0
210 626 627 0
c gate 628 181 -627 0
181 -628 0
-627 -628 0
-181 627 628 0
c gate 629 -625 628 0
-625 -629 0
628 -629 0
625 -628 629 0
c gate 630 -177 210 0
-177 -630 0
210 -630 0
177 -210 630 0
c gate 631 -208 623 0
-208 -631 0
623 -631 0
208 -623 631 0
c gate 632 -630 -631 0
-630 -632 0
-631 -632 0
630 631 632 0
c gate 633 -629 632 0
-629 -633 0
632 -633 0
629 -632 633 0
c gate 634 -603 -633 0
-603 -634 0
-633 -634 0
603 633 634 0
c gate 635 603 633 0
603 -635 0
633 -635 0
-603 -633 635 0
c gate 636 -634 -635 0
-634 -636 0
-635 -636 0
634 635 636 0
c gate 637 321 -329 0
321 -637 0
-329 -637 0
-321 329 637 0
c gate 638 322 -637 0
322 -638 0
-637 -638 0
-322 637 638 0
c gate 639 314 -638 0
314 -639 0
-638 -639 0
-314 638 639 0
c gate 640 313 -639 0
313 -640 0
-639 -640 0
-313 639 640 0
c gate 641 251 -640 0
251 -641 0
-640 -641 0
-251 640 641 0
c gate 642 -316 -641 0
-316 -642 0
-641 -642 0
316 641 642 0
c gate 643 588 -642 0
588 -643 0
-642 -643 0
-588 642 643 0
c gate 644 234 -422 0
234 -644 0
-422 -644 0
-234 422 644 0
c gate 645 -231 232 0
-231 -645 0
232 -645 0
231 -232 645 0
c gate 646 367 -645 0
367 -646 0
-645 -646 0
-367 645 646 0
c gate 647 -644 646 0
-644 -647 0
646 -647 0
644 -646 647 0
c gate 648 -643 647 0
-643 -648 0
647 -648 0
643 -647 648 0
c gate 649 612 -648 0
612 -649 0
-648 -649 0
-612 648 649 0
c gate 650 214 -649 0
214 -650 0
-649 -650 0
-214 649 650 0
c gate 651 -588 -645 0
-588 -651 0
-645 -651 0
588 645 651 0
c gate 652 335 -456 0
335 -652 0
-456 -652 0
-335 456 652 0
c gate 653 309 642 0
309 -653 0
642 -653 0
-309 -642 653 0
c gate 654 -652 653 0
-652 -654 0
653 -654 0
652 -653 654 0
c gate 655 233 654 0
233 -655 0
654 -655 0
-233 -654 655 0
c gate 656 -651 -655 0
-651 -656 0
-655 -656 0
651 655 656 0
c gate 657 -644 -656 0
-644 -657 0
-656 -657 0
644 656 657 0
c gate 658 613 -657 0
613 -658 0
-657 -658 0
-613 657 658 0
c gate 659 218 -367 0
218 -659 0
-367 -659 0
-218 367 659 0
c gate 660 597 659 0
597 -660 0
659 -660 0
-597 -659 660 0
c gate 661 214 -660 0
214 -661 0
-660 -661 0
-214 660 661 0
c gate 662 -658 661 0
-658 -662 0
661 -662 0
658 -661 662 0
c gate 663 650 -662 0
650 -663 0
-662 -663 0
-650 662 663 0
c gate 664 -650 662 0
-650 -664 0
662 -664 0
650 -662 664 0
c gate 665 -663 -664 0
-663 -665 0
-664 -665 0
663 664 665 0
c gate 666 175 -210 0
175 -666 0
-210 -666 0
-175 210 666 0
c gate 667 -175 210 0
-175 -667 0
210 -667 0
175 -210 667 0
c gate 668 -154 204 0
-154 -668 0
204 -668 0
154 -204 668 0
c gate 669 196 207 0
196 -669 0
207 -669 0
-196 -207 669 0
c gate 670 182 669 0
182 -670 0
669 -670 0
-182 -669 670 0
c gate 671 -668 670 0
-668 -671 0
670 -671 0
668 -670 671 0
c gate 672 -667 671 0
-667 -672 0
671 -672 0
667 -671 672 0
c gate 673 -666 672 0
-666 -673 0
672 -673 0
666 -672 673 0
c gate 674 -665 673 0
-665 -674 0
673 -674 0
665 -673 674 0
c gate 675 -1 -41 0
-1 -675 0
-41 -675 0
1 41 675 0
c gate 676 -97 675 0
-97 -676 0
675 -676 0
97 -675 676 0
c gate 677 338 676 0
338 -677 0
676 -677 0
-338 -676 677 0
c gate 678 335 677 0
335 -678 0
677 -678 0
-335 -677 678 0
c gate 679 -652 678 0
-652 -679 0
678 -679 0
652 -678 679 0
c gate 680 597 679 0
597 -680 0
679 -680 0
-597 -679 680 0
c gate 681 588 680 0
588 -681 0
680 -681 0
-588 -680 681 0
c gate 682 251 -309 0
251 -682 0
-309 -682 0
-251 309 682 0
c gate 683 588 682 0
588 -683 0
682 -683 0
-588 -682 683 0
c gate 684 -97 98 0
-97 -684 0
98 -684 0
97 -98 684 0
c gate 685 -490 -684 0
-490 -685 0
-684 -685 0
490 684 685 0
c gate 686 -683 685 0
-683 -686 0
685 -686 0
683 -685 686 0
c gate 687 182 614 0
182 -687 0
614 -687 0
-182 -614 687 0
c gate 688 -686 687 0
-686 -688 0
687 -688 0
686 -687 688 0
c gate 689 -681 -688 0
-681 -689 0
-688 -689 0
681 688 689 0
c gate 690 613 -689 0
613 -690 0
-689 -690 0
-613 689 690 0
c gate 691 -674 -690 0
-674 -691 0
-690 -691 0
674 690 691 0
c gate 692 -636 691 0
-636 -692 0
691 -692 0
636 -691 692 0
c gate 693 -585 692 0
-585 -693 0
692 -693 0
585 -692 693 0
c PO
-693 0
